Normalized Data/p10_4_normalized_splitx10_0.vrp
NAME:p10_4_NORMALIZED_splitx10_
BEST_KNOWN: 0
COMMENT: 0
DIMENSION: 849
CAPACITY: 1000
EDGE_WEIGHT_FORMAT: FUNCTION
EDGE_WEIGHT_TYPE: EXACT_2D
NODE_COORD_SECTION
1 0.00000 0.00000
2 -5 40
3 -5 40
4 -5 40
5 -5 40
6 -5 40
7 41 -30
8 41 -30
9 41 -30
10 41 -30
11 41 -30
12 36 18
13 36 18
14 36 18
15 36 18
16 36 18
17 36 18
18 36 18
19 -21 -42
20 -21 -42
21 -21 -42
22 -21 -42
23 -21 -42
24 14 38
25 14 38
26 14 38
27 14 38
28 14 38
29 14 38
30 -1 -36
31 -1 -36
32 -1 -36
33 -1 -36
34 -10 -25
35 -10 -25
36 -10 -25
37 -10 -25
38 40 36
39 40 36
40 40 36
41 -8 9
42 -8 9
43 -8 9
44 -8 9
45 -8 9
46 -34 -41
47 -34 -41
48 -34 -41
49 -34 -41
50 -34 -41
51 -34 -41
52 -20 -18
53 -20 -18
54 -20 -18
55 -20 -18
56 -20 -18
57 10 -35
58 10 -35
59 10 -35
60 10 -35
61 -40 -18
62 -40 -18
63 -40 -18
64 -40 -18
65 -40 -18
66 -40 -18
67 -39 40
68 -39 40
69 -39 40
70 16 33
71 16 33
72 16 33
73 16 33
74 16 33
75 16 33
76 45 -26
77 45 -26
78 45 -26
79 45 -26
80 -35 17
81 -35 17
82 27 -13
83 27 -13
84 27 -13
85 27 -13
86 27 -13
87 32 -34
88 2 0
89 2 0
90 2 0
91 7 -7
92 7 -7
93 7 -7
94 28 -11
95 28 -11
96 28 -11
97 28 -11
98 28 -11
99 28 -11
100 -11 -41
101 -11 -41
102 -11 -41
103 -11 -41
104 -11 -41
105 -11 -41
106 42 -2
107 42 -2
108 42 -2
109 42 -2
110 47 -41
111 47 -41
112 47 -41
113 47 -41
114 47 -41
115 47 -41
116 31 43
117 31 43
118 31 43
119 -9 50
120 -9 50
121 -9 50
122 -9 50
123 -37 36
124 -37 36
125 32 -29
126 32 -29
127 32 -29
128 44 -25
129 44 -25
130 38 -48
131 38 -48
132 38 -48
133 38 -48
134 38 -48
135 38 -48
136 -6 21
137 -6 21
138 -6 21
139 -6 21
140 -6 21
141 -33 -32
142 -33 -32
143 -33 -32
144 40 -24
145 40 -24
146 40 -24
147 40 -24
148 40 -24
149 4 32
150 4 32
151 4 32
152 4 32
153 4 32
154 4 32
155 4 32
156 5 -21
157 5 -21
158 5 -21
159 -49 -27
160 -49 -27
161 -49 -27
162 -49 -27
163 2 39
164 2 39
165 2 39
166 2 39
167 16 12
168 16 12
169 16 12
170 16 12
171 16 12
172 16 12
173 16 12
174 23 22
175 23 22
176 23 22
177 23 22
178 23 22
179 23 22
180 -35 18
181 -35 18
182 -35 18
183 -35 18
184 -45 24
185 -45 24
186 -45 24
187 -45 24
188 -19 -47
189 -19 -47
190 -49 0
191 -49 0
192 -49 0
193 -49 0
194 -49 0
195 -49 0
196 32 -16
197 32 -16
198 32 -16
199 32 -16
200 32 -16
201 32 -16
202 48 -44
203 48 -44
204 48 -44
205 48 -44
206 30 42
207 30 42
208 30 42
209 30 42
210 33 7
211 33 7
212 33 7
213 33 7
214 33 7
215 33 7
216 -50 -38
217 -50 -38
218 -50 -38
219 -50 -38
220 -50 -38
221 -42 -21
222 -42 -21
223 -42 -21
224 -42 -21
225 -18 -5
226 -18 -5
227 -18 -5
228 -18 -5
229 38 -13
230 38 -13
231 38 -13
232 38 -13
233 -7 -37
234 -7 -37
235 -7 -37
236 -7 -37
237 -7 -37
238 -23 -38
239 -23 -38
240 -23 -38
241 -23 -38
242 -23 -38
243 30 35
244 30 35
245 30 35
246 -7 42
247 -7 42
248 -7 42
249 -7 42
250 -7 42
251 36 32
252 36 32
253 36 32
254 36 32
255 36 32
256 -41 -4
257 -41 -4
258 -41 -4
259 -41 -4
260 -41 -4
261 -40 -28
262 -19 38
263 -19 38
264 -19 38
265 -43 -23
266 -43 -23
267 -43 -23
268 -43 -23
269 -29 19
270 -29 19
271 -29 19
272 -29 19
273 -29 19
274 47 50
275 47 50
276 47 50
277 47 50
278 47 50
279 47 50
280 27 11
281 27 11
282 27 11
283 27 11
284 -8 -29
285 -8 -29
286 -8 -29
287 15 31
288 15 31
289 15 31
290 15 31
291 15 31
292 -29 -8
293 -29 -8
294 -29 -8
295 -29 -8
296 -29 -8
297 -29 -8
298 -29 -8
299 23 -21
300 23 -21
301 -24 9
302 -24 9
303 -24 9
304 -24 9
305 -24 9
306 18 -29
307 18 -29
308 18 -29
309 18 -29
310 18 -29
311 -1 -28
312 -1 -28
313 -1 -28
314 -1 -28
315 36 0
316 36 0
317 36 0
318 36 0
319 -22 33
320 -22 33
321 -22 33
322 -22 33
323 -40 -9
324 -40 -9
325 24 34
326 24 34
327 24 34
328 24 34
329 7 36
330 7 36
331 44 -50
332 44 -50
333 44 -50
334 44 -50
335 43 -47
336 43 -47
337 -50 26
338 -50 26
339 -50 26
340 -50 26
341 -46 24
342 -46 24
343 -46 24
344 38 -1
345 38 -1
346 38 -1
347 49 15
348 49 15
349 49 15
350 49 15
351 49 15
352 49 15
353 49 15
354 -29 29
355 -29 29
356 -29 29
357 -29 29
358 -29 29
359 -29 29
360 50 24
361 50 24
362 50 24
363 50 24
364 50 24
365 -42 -2
366 -42 -2
367 -42 -2
368 -28 8
369 -28 8
370 38 27
371 38 27
372 38 27
373 38 27
374 38 27
375 38 27
376 15 49
377 15 49
378 15 49
379 15 49
380 15 49
381 -10 18
382 -10 18
383 -10 18
384 -10 18
385 -10 18
386 -2 32
387 -2 32
388 -2 32
389 -2 32
390 -2 32
391 10 5
392 10 5
393 10 5
394 10 5
395 -21 -31
396 -21 -31
397 -21 -31
398 -21 -31
399 41 -47
400 41 -47
401 41 -47
402 18 -13
403 18 -13
404 18 -13
405 -12 -30
406 -12 -30
407 -12 -30
408 -12 -30
409 -12 -30
410 23 50
411 23 50
412 -37 -9
413 -37 -9
414 -37 -9
415 -6 45
416 -6 45
417 -6 45
418 -6 45
419 -6 45
420 -6 45
421 -16 -10
422 -16 -10
423 -16 -10
424 -47 9
425 -47 9
426 -47 9
427 14 -25
428 14 -25
429 14 -25
430 14 -25
431 14 -25
432 0 -27
433 0 -27
434 0 -27
435 0 -27
436 0 -27
437 0 -27
438 0 -27
439 50 -29
440 50 -29
441 50 -29
442 50 -29
443 50 -29
444 50 -29
445 -23 9
446 -23 9
447 -23 9
448 -23 9
449 -23 9
450 -23 9
451 -5 28
452 -5 28
453 -5 28
454 -5 28
455 -5 28
456 -39 -23
457 -39 -23
458 -39 -23
459 -39 -23
460 -30 -8
461 -30 -8
462 -30 -8
463 -30 -8
464 -30 -8
465 40 -34
466 40 -34
467 14 -26
468 14 -26
469 14 -26
470 14 -26
471 14 -26
472 12 8
473 12 8
474 8 -1
475 8 -1
476 8 -1
477 8 -1
478 -34 6
479 -34 6
480 -34 6
481 -34 6
482 15 29
483 15 29
484 15 29
485 15 29
486 15 29
487 15 29
488 31 20
489 31 20
490 31 20
491 31 20
492 31 20
493 31 20
494 49 -4
495 49 -4
496 49 -4
497 49 -4
498 49 -4
499 20 -45
500 20 -45
501 20 -45
502 20 -45
503 20 -45
504 20 -45
505 20 -45
506 -42 9
507 -42 9
508 -42 9
509 -42 9
510 -42 9
511 31 -47
512 31 -47
513 31 -47
514 31 -47
515 31 -47
516 -31 26
517 -31 26
518 -31 26
519 -31 26
520 -31 26
521 -31 26
522 -31 26
523 -12 -36
524 -12 -36
525 -12 -36
526 -12 -36
527 38 23
528 38 23
529 38 23
530 17 46
531 17 46
532 17 46
533 17 46
534 17 46
535 -37 43
536 -37 43
537 -37 43
538 -37 43
539 -37 43
540 -37 43
541 23 -16
542 23 -16
543 23 -16
544 23 -16
545 11 2
546 11 2
547 11 2
548 -21 37
549 -21 37
550 -21 37
551 36 -6
552 36 -6
553 -23 -41
554 -23 -41
555 -23 -41
556 -23 -41
557 31 20
558 -14 -8
559 -14 -8
560 -14 -8
561 -14 -8
562 -14 -8
563 26 32
564 26 32
565 26 32
566 49 19
567 49 19
568 49 19
569 49 19
570 9 -19
571 9 -19
572 9 -19
573 9 -19
574 9 -19
575 9 -19
576 9 -19
577 37 8
578 37 8
579 43 0
580 43 0
581 43 0
582 43 0
583 43 0
584 43 0
585 31 -7
586 31 -7
587 31 -7
588 31 -7
589 31 -7
590 -43 48
591 -43 48
592 31 27
593 31 27
594 31 27
595 19 10
596 19 10
597 19 10
598 19 10
599 19 10
600 -38 47
601 -38 47
602 -38 47
603 -38 47
604 -2 43
605 -2 43
606 -2 43
607 -2 43
608 -2 43
609 30 16
610 30 16
611 30 16
612 30 16
613 15 47
614 15 47
615 15 47
616 15 47
617 15 47
618 17 -2
619 17 -2
620 17 -2
621 31 41
622 31 41
623 31 41
624 -47 47
625 -47 47
626 -47 47
627 -47 47
628 -47 47
629 6 47
630 6 47
631 39 -28
632 39 -28
633 39 -28
634 39 -28
635 39 -28
636 -14 -44
637 -14 -44
638 -14 -44
639 -14 -44
640 -34 -35
641 -34 -35
642 -34 -35
643 -34 -35
644 -34 -35
645 -34 -35
646 -13 43
647 -13 43
648 -13 43
649 -7 2
650 -7 2
651 -7 2
652 -7 2
653 -7 2
654 -22 10
655 -22 10
656 18 -21
657 18 -21
658 18 -21
659 18 -21
660 45 22
661 45 22
662 45 22
663 45 22
664 0 -21
665 0 -21
666 0 -21
667 0 -21
668 0 -21
669 39 10
670 39 10
671 39 10
672 39 10
673 39 10
674 -10 2
675 -10 2
676 -10 2
677 -10 2
678 -10 35
679 -10 35
680 -10 35
681 -10 35
682 -42 49
683 -42 49
684 -42 49
685 -42 49
686 -44 -7
687 -44 -7
688 -44 -7
689 -41 -22
690 -41 -22
691 -41 -22
692 -41 -22
693 -41 -22
694 21 45
695 21 45
696 21 45
697 21 45
698 21 45
699 39 -21
700 39 -21
701 39 -21
702 32 -5
703 32 -5
704 32 -5
705 32 -5
706 6 -3
707 6 -3
708 6 -3
709 6 -3
710 6 -3
711 6 -3
712 -16 41
713 -16 41
714 -16 41
715 -16 41
716 -16 41
717 8 36
718 8 36
719 -5 28
720 -5 28
721 -5 28
722 -5 28
723 -5 28
724 -5 28
725 24 6
726 24 6
727 24 6
728 13 -28
729 13 -28
730 46 22
731 46 22
732 46 22
733 18 26
734 18 26
735 18 26
736 14 12
737 14 12
738 14 12
739 14 12
740 -6 39
741 -6 39
742 -6 39
743 -6 39
744 -37 -26
745 -37 -26
746 -37 -26
747 5 -28
748 5 -28
749 5 -28
750 5 -28
751 5 -28
752 -3 33
753 -3 33
754 -3 33
755 -3 33
756 25 8
757 25 8
758 -21 -38
759 -21 -38
760 -21 -38
761 -21 -38
762 -21 -38
763 -21 -38
764 -21 -38
765 24 -47
766 24 -47
767 24 -47
768 24 -47
769 24 -47
770 17 38
771 17 38
772 17 38
773 17 38
774 17 38
775 17 38
776 9 -7
777 9 -7
778 9 -7
779 9 -7
780 9 -7
781 47 -13
782 47 -13
783 47 -13
784 47 -13
785 47 -13
786 -10 -45
787 -10 -45
788 -10 -45
789 -10 -45
790 -10 -45
791 -10 -45
792 -10 -45
793 -25 -25
794 -25 -25
795 -25 -25
796 -25 -25
797 -25 -25
798 -25 -25
799 -25 -25
800 -45 -47
801 -45 -47
802 -45 -47
803 -43 -8
804 -43 -8
805 32 -35
806 32 -35
807 32 -35
808 32 -35
809 32 -35
810 14 -4
811 14 -4
812 14 -4
813 -38 14
814 -38 14
815 -38 14
816 -38 14
817 -41 -37
818 -41 -37
819 -41 -37
820 -41 -37
821 -41 -37
822 -41 -37
823 3 20
824 3 20
825 3 20
826 3 20
827 27 33
828 27 33
829 -42 -44
830 -42 -44
831 -42 -44
832 -39 -46
833 -39 -46
834 -39 -46
835 -39 -46
836 -39 -46
837 -39 -46
838 -39 -46
839 35 36
840 35 36
841 35 36
842 -12 21
843 -12 21
844 -12 21
845 -12 21
846 -12 21
847 31 48
848 31 48
849 31 48
DEMAND_SECTION
1 0
2 200
3 50
4 10
5 10
6 10
7 200
8 100
9 50
10 10
11 10
12 200
13 200
14 50
15 10
16 10
17 10
18 10
19 100
20 50
21 10
22 10
23 10
24 200
25 200
26 10
27 10
28 10
29 10
30 200
31 100
32 50
33 10
34 200
35 10
36 10
37 10
38 200
39 100
40 50
41 100
42 50
43 10
44 10
45 10
46 200
47 200
48 10
49 10
50 10
51 10
52 200
53 100
54 10
55 10
56 10
57 100
58 50
59 10
60 10
61 200
62 50
63 10
64 10
65 10
66 10
67 200
68 100
69 50
70 200
71 50
72 10
73 10
74 10
75 10
76 100
77 10
78 10
79 10
80 200
81 200
82 200
83 200
84 10
85 10
86 10
87 200
88 200
89 100
90 50
91 200
92 200
93 50
94 200
95 100
96 10
97 10
98 10
99 10
100 200
101 100
102 10
103 10
104 10
105 10
106 200
107 100
108 50
109 10
110 200
111 100
112 50
113 10
114 10
115 10
116 200
117 100
118 10
119 200
120 100
121 50
122 10
123 100
124 50
125 200
126 100
127 50
128 200
129 200
130 200
131 200
132 50
133 10
134 10
135 10
136 100
137 50
138 10
139 10
140 10
141 200
142 200
143 10
144 100
145 50
146 10
147 10
148 10
149 200
150 200
151 50
152 10
153 10
154 10
155 10
156 200
157 50
158 10
159 200
160 200
161 10
162 10
163 200
164 100
165 50
166 10
167 200
168 200
169 50
170 10
171 10
172 10
173 10
174 200
175 200
176 10
177 10
178 10
179 10
180 200
181 100
182 50
183 10
184 200
185 100
186 10
187 10
188 200
189 50
190 100
191 50
192 10
193 10
194 10
195 10
196 200
197 200
198 50
199 10
200 10
201 10
202 200
203 10
204 10
205 10
206 200
207 100
208 50
209 10
210 200
211 50
212 10
213 10
214 10
215 10
216 200
217 10
218 10
219 10
220 10
221 100
222 50
223 10
224 10
225 200
226 100
227 10
228 10
229 200
230 200
231 10
232 10
233 200
234 100
235 10
236 10
237 10
238 100
239 50
240 10
241 10
242 10
243 200
244 200
245 100
246 200
247 10
248 10
249 10
250 10
251 200
252 100
253 10
254 10
255 10
256 100
257 50
258 10
259 10
260 10
261 200
262 100
263 50
264 10
265 200
266 10
267 10
268 10
269 200
270 10
271 10
272 10
273 10
274 200
275 200
276 10
277 10
278 10
279 10
280 200
281 100
282 50
283 10
284 100
285 50
286 10
287 100
288 10
289 10
290 10
291 10
292 200
293 200
294 50
295 10
296 10
297 10
298 10
299 200
300 50
301 100
302 10
303 10
304 10
305 10
306 100
307 50
308 10
309 10
310 10
311 200
312 10
313 10
314 10
315 200
316 10
317 10
318 10
319 200
320 50
321 10
322 10
323 200
324 10
325 200
326 200
327 50
328 10
329 100
330 50
331 100
332 10
333 10
334 10
335 200
336 100
337 200
338 200
339 50
340 10
341 200
342 100
343 10
344 100
345 50
346 10
347 200
348 200
349 50
350 10
351 10
352 10
353 10
354 100
355 50
356 10
357 10
358 10
359 10
360 200
361 200
362 10
363 10
364 10
365 200
366 10
367 10
368 100
369 50
370 200
371 200
372 10
373 10
374 10
375 10
376 200
377 100
378 10
379 10
380 10
381 100
382 10
383 10
384 10
385 10
386 200
387 10
388 10
389 10
390 10
391 200
392 100
393 10
394 10
395 100
396 10
397 10
398 10
399 100
400 10
401 10
402 100
403 50
404 10
405 200
406 100
407 10
408 10
409 10
410 200
411 100
412 200
413 200
414 100
415 200
416 100
417 10
418 10
419 10
420 10
421 200
422 100
423 10
424 200
425 10
426 10
427 200
428 200
429 50
430 10
431 10
432 200
433 200
434 50
435 10
436 10
437 10
438 10
439 200
440 100
441 50
442 10
443 10
444 10
445 100
446 50
447 10
448 10
449 10
450 10
451 200
452 200
453 50
454 10
455 10
456 100
457 10
458 10
459 10
460 200
461 50
462 10
463 10
464 10
465 200
466 100
467 200
468 50
469 10
470 10
471 10
472 200
473 100
474 100
475 50
476 10
477 10
478 200
479 100
480 10
481 10
482 200
483 200
484 10
485 10
486 10
487 10
488 200
489 200
490 10
491 10
492 10
493 10
494 200
495 50
496 10
497 10
498 10
499 200
500 100
501 50
502 10
503 10
504 10
505 10
506 200
507 50
508 10
509 10
510 10
511 200
512 10
513 10
514 10
515 10
516 200
517 100
518 50
519 10
520 10
521 10
522 10
523 100
524 10
525 10
526 10
527 200
528 200
529 50
530 200
531 100
532 50
533 10
534 10
535 200
536 200
537 10
538 10
539 10
540 10
541 200
542 50
543 10
544 10
545 200
546 10
547 10
548 200
549 10
550 10
551 100
552 50
553 200
554 200
555 50
556 10
557 200
558 200
559 10
560 10
561 10
562 10
563 100
564 50
565 10
566 200
567 200
568 10
569 10
570 200
571 200
572 50
573 10
574 10
575 10
576 10
577 200
578 100
579 200
580 100
581 10
582 10
583 10
584 10
585 200
586 100
587 10
588 10
589 10
590 200
591 100
592 200
593 200
594 10
595 200
596 200
597 50
598 10
599 10
600 200
601 200
602 10
603 10
604 200
605 100
606 10
607 10
608 10
609 100
610 50
611 10
612 10
613 200
614 100
615 50
616 10
617 10
618 200
619 100
620 10
621 200
622 200
623 100
624 200
625 200
626 10
627 10
628 10
629 200
630 100
631 200
632 50
633 10
634 10
635 10
636 100
637 50
638 10
639 10
640 200
641 200
642 10
643 10
644 10
645 10
646 200
647 200
648 10
649 200
650 10
651 10
652 10
653 10
654 200
655 200
656 200
657 10
658 10
659 10
660 100
661 10
662 10
663 10
664 200
665 100
666 10
667 10
668 10
669 200
670 50
671 10
672 10
673 10
674 200
675 100
676 50
677 10
678 100
679 10
680 10
681 10
682 200
683 100
684 50
685 10
686 200
687 200
688 50
689 200
690 10
691 10
692 10
693 10
694 200
695 10
696 10
697 10
698 10
699 200
700 50
701 10
702 200
703 50
704 10
705 10
706 100
707 50
708 10
709 10
710 10
711 10
712 200
713 200
714 50
715 10
716 10
717 100
718 50
719 100
720 50
721 10
722 10
723 10
724 10
725 200
726 200
727 100
728 200
729 50
730 200
731 100
732 10
733 200
734 100
735 10
736 200
737 200
738 50
739 10
740 100
741 10
742 10
743 10
744 100
745 50
746 10
747 200
748 10
749 10
750 10
751 10
752 200
753 100
754 10
755 10
756 200
757 200
758 200
759 200
760 50
761 10
762 10
763 10
764 10
765 200
766 10
767 10
768 10
769 10
770 200
771 100
772 10
773 10
774 10
775 10
776 200
777 200
778 50
779 10
780 10
781 200
782 10
783 10
784 10
785 10
786 200
787 200
788 50
789 10
790 10
791 10
792 10
793 200
794 100
795 50
796 10
797 10
798 10
799 10
800 200
801 200
802 10
803 100
804 50
805 200
806 10
807 10
808 10
809 10
810 200
811 50
812 10
813 100
814 10
815 10
816 10
817 100
818 50
819 10
820 10
821 10
822 10
823 200
824 50
825 10
826 10
827 200
828 100
829 200
830 200
831 50
832 200
833 100
834 50
835 10
836 10
837 10
838 10
839 200
840 200
841 100
842 200
843 100
844 10
845 10
846 10
847 200
848 200
849 50
DEPOT_SECTION
1
-1
EOF