Normalized Data/p10_4_normalized_splitx10_0.sol
848 -16 15 730 731 729 363 361 362 360 359 662 661 660 659 608 610 -27 26 529 531 533 532 530 409 410 694 697 696 695 693 771 72 74 73 71 288 290 -34 33 285 284 283 408 407 406 405 404 421 557 -35 36 524 525 522 523 235 232 233 236 234 29 32 30 31 59 57 58 571 572 574 -40 44 270 271 268 272 269 516 519 521 515 517 520 518 357 355 358 353 844 842 843 383 -41 653 654 304 301 302 300 303 447 446 445 448 444 648 652 649 650 -43 42 589 682 681 684 683 601 602 599 600 -50 49 46 45 48 47 644 643 640 641 639 642 793 798 -52 51 397 395 396 394 241 240 239 238 758 760 759 757 761 762 763 -54 53 55 795 792 141 140 260 744 743 745 -56 504 498 503 499 500 501 502 764 767 768 765 766 511 512 510 513 514 132 133 134 -79 80 813 814 815 812 478 477 480 479 367 368 -87 89 88 473 474 544 391 390 -90 91 92 776 775 706 705 -93 82 84 83 85 81 540 541 542 543 401 -95 98 94 96 97 587 585 588 586 584 618 617 619 809 475 476 -99 103 102 101 104 100 788 791 786 787 785 790 789 638 637 635 636 -106 105 581 582 579 494 493 495 497 496 784 783 781 782 780 551 -130 129 131 333 332 331 330 335 334 399 398 400 -136 739 741 740 742 1 2 3 605 606 603 607 604 385 388 -138 139 137 135 164 162 163 165 150 149 153 152 148 154 151 -142 821 818 817 816 820 819 828 829 833 832 834 836 831 837 835 -147 143 146 145 144 77 76 78 75 127 128 700 698 699 -157 156 155 663 664 673 674 676 675 -169 171 168 167 735 738 737 736 823 822 825 824 -173 174 592 591 556 -176 175 177 178 39 274 273 277 275 278 276 846 848 847 -181 182 179 180 186 185 183 184 341 342 340 449 -187 188 18 19 20 22 21 554 555 553 552 237 -199 200 198 195 197 196 229 228 230 231 550 -204 203 202 201 109 112 110 113 114 111 440 439 443 438 442 441 -208 206 205 207 117 116 115 838 840 -209 213 212 210 211 214 577 576 668 670 724 -222 221 223 220 161 159 160 158 265 691 690 692 689 688 456 455 457 458 559 560 558 -226 225 224 292 291 294 297 295 459 463 460 -227 259 257 256 366 364 365 193 194 192 190 191 189 424 423 425 505 508 507 506 509 651 -244 242 243 622 621 620 -246 245 248 247 249 120 121 119 118 414 415 418 419 416 417 5 4 389 386 387 -255 258 685 687 686 803 802 322 323 462 461 296 293 -280 279 755 756 726 725 -281 282 12 17 13 11 14 491 492 490 487 488 489 -307 306 308 305 309 808 805 806 804 807 86 125 126 124 778 779 -314 315 317 316 580 583 578 108 107 344 345 343 704 702 703 701 811 810 -321 320 318 319 547 548 549 263 261 262 679 751 754 753 752 -329 328 716 717 25 23 24 28 289 287 484 486 481 -337 339 338 336 627 623 625 626 624 590 -354 356 123 122 67 68 66 534 535 539 537 538 536 -382 381 384 380 841 845 723 722 721 720 719 452 450 718 451 454 453 -393 392 373 371 374 372 369 370 527 526 528 609 611 -411 413 412 65 63 61 62 60 64 420 422 -427 429 428 430 426 470 466 469 467 468 727 728 -465 464 7 9 8 6 10 631 633 632 634 630 777 -472 471 166 172 170 598 596 595 594 597 -485 482 483 286 70 69 773 772 774 769 770 733 -546 545 669 672 671 348 346 351 350 352 349 347 565 566 568 567 -561 267 266 264 218 219 215 217 216 800 799 801 830 797 794 796 -564 562 563 839 37 38 250 251 252 254 253 593 -575 573 569 570 656 657 655 658 298 299 402 403 707 709 708 710 -616 612 613 615 614 375 378 379 377 376 629 628 -667 666 665 431 434 433 437 432 435 436 312 313 310 311 746 748 750 747 749 -677 678 680 647 645 646 713 711 715 714 712 -734 732 325 327 326 324 826 827 0 





OBJ=
5771.644
BEST_KNOWN=
0.000